NAME : local_7
TYPE : ATSP
DIMENSION : 27
EDGE_WEIGHT_TYPE : EXPLICIT
EDGE_WEIGHT_FORMAT : FULL_MATRIX
EDGE_WEIGHT_SECTION
0 10000000 10000000 876 10000000 10000000 745 704 10000000 10000000 10000000 10000000 10000000 10000000 10000000 10000000 10000000 10000000 10000000 352 682 575 10000000 10000000 333 10000000 10000000 
0 0 10000000 10000000 712 10000000 10000000 10000000 934 10000000 10000000 10000000 10000000 10000000 10000000 10000000 10000000 393 10000000 10000000 10000000 10000000 10000000 10000000 10000000 855 10000000 
0 10000000 0 445 10000000 10000000 466 681 10000000 10000000 10000000 746 223 948 724 800 10000000 1004 10000000 962 10000000 10000000 10000000 10000000 10000000 10000000 10000000 
0 10000000 445 0 814 10000000 157 248 865 10000000 10000000 10000000 628 10000000 891 892 10000000 866 10000000 596 10000000 945 10000000 10000000 10000000 10000000 10000000 
0 712 10000000 814 0 10000000 939 817 230 438 534 10000000 10000000 10000000 10000000 10000000 10000000 350 726 10000000 10000000 10000000 748 10000000 10000000 944 10000000 
0 10000000 10000000 10000000 10000000 0 10000000 10000000 10000000 10000000 10000000 592 10000000 281 418 300 370 10000000 10000000 10000000 10000000 10000000 1104 334 10000000 832 487 
0 10000000 466 157 950 10000000 0 245 1006 10000000 10000000 979 677 10000000 835 824 10000000 1074 10000000 502 10000000 890 10000000 10000000 997 10000000 10000000 
0 10000000 681 248 817 10000000 245 0 800 944 875 10000000 875 10000000 10000000 975 10000000 962 10000000 381 888 702 10000000 10000000 890 10000000 10000000 
0 934 10000000 865 230 10000000 1000 800 0 228 304 10000000 10000000 10000000 10000000 10000000 10000000 581 497 1060 10000000 10000000 629 10000000 10000000 980 10000000 
0 10000000 10000000 10000000 438 10000000 10000000 944 228 0 179 10000000 10000000 10000000 10000000 10000000 10000000 780 309 10000000 10000000 10000000 472 10000000 10000000 992 10000000 
0 10000000 10000000 10000000 534 10000000 10000000 875 304 179 0 10000000 10000000 10000000 10000000 10000000 10000000 885 204 972 936 987 599 10000000 10000000 10000000 10000000 
0 10000000 746 10000000 10000000 592 979 10000000 10000000 10000000 10000000 0 761 328 259 401 325 10000000 10000000 10000000 10000000 10000000 10000000 920 10000000 10000000 770 
0 10000000 223 628 10000000 10000000 677 875 10000000 10000000 10000000 763 0 10000000 806 910 10000000 1050 10000000 10000000 10000000 10000000 10000000 10000000 10000000 10000000 10000000 
0 10000000 948 10000000 10000000 281 10000000 10000000 10000000 10000000 10000000 328 10000000 0 249 251 124 10000000 10000000 10000000 10000000 10000000 10000000 597 10000000 885 529 
0 10000000 724 891 10000000 418 835 10000000 10000000 10000000 10000000 259 806 249 0 153 340 10000000 10000000 10000000 10000000 10000000 10000000 751 10000000 10000000 749 
0 10000000 800 892 10000000 300 824 975 10000000 10000000 10000000 401 910 251 153 0 372 10000000 10000000 10000000 10000000 10000000 10000000 621 10000000 10000000 705 
0 10000000 10000000 10000000 10000000 370 10000000 10000000 10000000 10000000 10000000 325 10000000 124 340 372 0 10000000 10000000 10000000 10000000 10000000 10000000 655 10000000 842 493 
0 393 1000 866 350 10000000 1044 962 581 780 885 10000000 1001 10000000 10000000 10000000 10000000 0 10000000 10000000 10000000 10000000 10000000 10000000 10000000 912 10000000 
0 10000000 10000000 10000000 726 10000000 10000000 10000000 497 309 204 10000000 10000000 10000000 10000000 10000000 10000000 10000000 0 10000000 909 10000000 580 10000000 10000000 10000000 10000000 
0 10000000 962 596 10000000 10000000 502 381 1062 10000000 977 10000000 10000000 10000000 10000000 10000000 10000000 10000000 10000000 0 614 433 10000000 10000000 510 10000000 10000000 
0 10000000 10000000 10000000 10000000 10000000 10000000 888 10000000 10000000 936 10000000 10000000 10000000 10000000 10000000 10000000 10000000 909 614 0 258 10000000 10000000 458 10000000 10000000 
0 10000000 10000000 945 10000000 10000000 890 702 10000000 10000000 987 10000000 10000000 10000000 10000000 10000000 10000000 10000000 10000000 433 258 0 10000000 10000000 429 10000000 10000000 
0 10000000 10000000 10000000 748 1117 10000000 10000000 629 472 599 10000000 10000000 10000000 10000000 10000000 10000000 10000000 580 10000000 10000000 10000000 0 946 10000000 740 895 
0 10000000 10000000 10000000 10000000 334 10000000 10000000 10000000 10000000 10000000 920 10000000 597 751 621 655 10000000 10000000 10000000 10000000 10000000 928 0 10000000 833 522 
0 10000000 10000000 10000000 10000000 10000000 997 890 10000000 10000000 10000000 10000000 10000000 10000000 10000000 10000000 10000000 10000000 10000000 510 458 429 10000000 10000000 0 10000000 10000000 
0 855 10000000 10000000 950 832 10000000 10000000 1013 992 10000000 10000000 10000000 914 10000000 10000000 842 921 10000000 10000000 10000000 10000000 740 833 10000000 0 423 
0 10000000 10000000 10000000 10000000 10000000 10000000 10000000 10000000 10000000 10000000 10000000 10000000 10000000 10000000 10000000 10000000 10000000 10000000 10000000 10000000 10000000 10000000 10000000 10000000 10000000 0 
EOF